10 1 5
230 870 555 578 995 596 800 819 630 504 
747 816 996 509 700 238 395 870 236 292 
602 556 10 52 303 290 195 264 670 299 
860 900 169 415 477 163 10 277 981 640 
781 727 456 777 235 155 14 630 25 250 
9220 6260 8050 9310 6770 1080 2210 8720 3720 8910 
32120
